<instance format="XCSP3" type="COP">
  <variables>
    <var id="x" note="x is the number of unused bins"> 0..24 </var>
    <array id="b" note="b[i][j] indicates the weight of the jth object put in the ith bin. It is 0 if there is no object at this place." size="[24][3]"> 0 250 252 253 259 261 262 265 269 273..276 278 279 281 284 287 292 297 300 304 310 317 321 322 328 337 339 344 355 357 365 368 369 374 375 380 388 394 400 403 405 424 427 449..451 464 471 485 498 </array>
  </variables>
  <constraints>
    <group>
      <mdd>
        <list> %... </list>
        <transitions> (root,0,n3)(root,250,n5)(root,252,n7)(root,253,n8)(root,259,n10)(root,261,n11)(root,262,n13)(root,265,n15)(root,269,n17)(root,273,n19)(root,274,n21)(root,275,n23)(root,276,n26)(root,278,n26)(root,279,n29)(root,281,n30)(root,284,n32)(root,287,n35)(root,292,n37)(root,297,n38)(root,300,n40)(root,304,n42)(root,310,n44)(root,317,n46)(root,321,n48)(root,322,n50)(root,328,n53)(root,337,n55)(root,339,n56)(root,344,n57)(root,355,n58)(root,357,n59)(root,365,n60)(root,368,n61)(root,369,n62)(root,374,n63)(root,375,n64)(root,380,n65)(root,388,n66)(root,394,n67)(root,400,n68)(root,403,n69)(root,405,n70)(root,424,n71)(root,427,n72)(root,449,n73)(root,450,n74)(root,451,n75)(root,464,n76)(root,471,n77)(root,485,n78)(root,498,n79)(n3,0,n4)(n4,0,nodeT)(n5,0,n4)(n5,250,n6)(n6,0,nodeT)(n6,250,nodeT)(n7,0,n4)(n7,250,n6)(n7,252,n6)(n8,0,n4)(n8,250,n6)(n8,252,n9)(n9,0,nodeT)(n9,250,nodeT)(n9,252,nodeT)(n10,0,n4)(n10,250,n6)(n10,252,n9)(n10,253,n9)(n11,0,n4)(n11,250,n6)(n11,252,n9)(n11,253,n9)(n11,259,n12)(n12,0,nodeT)(n12,250,nodeT)(n12,252,nodeT)(n12,253,nodeT)(n13,0,n4)(n13,250,n6)(n13,252,n9)(n13,253,n9)(n13,259,n12)(n13,261,n14)(n14,0,nodeT)(n14,250,nodeT)(n14,252,nodeT)(n14,253,nodeT)(n14,259,nodeT)(n15,0,n4)(n15,250,n6)(n15,252,n9)(n15,253,n9)(n15,259,n12)(n15,261,n14)(n15,262,n16)(n16,0,nodeT)(n16,250,nodeT)(n16,252,nodeT)(n16,253,nodeT)(n16,259,nodeT)(n16,261,nodeT)(n17,0,n4)(n17,250,n6)(n17,252,n9)(n17,253,n9)(n17,259,n12)(n17,261,n14)(n17,262,n16)(n17,265,n18)(n18,0,nodeT)(n18,250,nodeT)(n18,252,nodeT)(n18,253,nodeT)(n18,259,nodeT)(n18,261,nodeT)(n18,262,nodeT)(n19,0,n4)(n19,250,n6)(n19,252,n9)(n19,253,n9)(n19,259,n12)(n19,261,n14)(n19,262,n16)(n19,265,n18)(n19,269,n20)(n20,0,nodeT)(n20,250,nodeT)(n20,252,nodeT)(n20,253,nodeT)(n20,259,nodeT)(n20,261,nodeT)(n20,262,nodeT)(n20,265,nodeT)(n21,0,n4)(n21,250,n6)(n21,252,n9)(n21,253,n9)(n21,259,n12)(n21,261,n14)(n21,262,n16)(n21,265,n18)(n21,269,n20)(n21,273,n22)(n22,0,nodeT)(n22,250,nodeT)(n22,252,nodeT)(n22,253,nodeT)(n22,259,nodeT)(n22,261,nodeT)(n22,262,nodeT)(n22,265,nodeT)(n22,269,nodeT)(n23,0,n4)(n23,250,n6)(n23,252,n9)(n23,253,n9)(n23,259,n12)(n23,261,n14)(n23,262,n16)(n23,265,n18)(n23,269,n20)(n23,273,n22)(n23,274,n24)(n23,275,n25)(n24,0,nodeT)(n24,250,nodeT)(n24,252,nodeT)(n24,253,nodeT)(n24,259,nodeT)(n24,261,nodeT)(n24,262,nodeT)(n24,265,nodeT)(n24,269,nodeT)(n24,273,nodeT)(n25,0,nodeT)(n25,250,nodeT)(n25,252,nodeT)(n25,253,nodeT)(n25,259,nodeT)(n25,261,nodeT)(n25,262,nodeT)(n25,265,nodeT)(n25,269,nodeT)(n25,273,nodeT)(n25,274,nodeT)(n26,0,n4)(n26,250,n6)(n26,252,n9)(n26,253,n9)(n26,259,n12)(n26,261,n14)(n26,262,n16)(n26,265,n18)(n26,269,n20)(n26,273,n22)(n26,274,n24)(n26,275,n27)(n26,276,n28)(n27,0,nodeT)(n27,250,nodeT)(n27,252,nodeT)(n27,253,nodeT)(n27,259,nodeT)(n27,261,nodeT)(n27,262,nodeT)(n27,265,nodeT)(n27,269,nodeT)(n27,273,nodeT)(n27,274,nodeT)(n27,275,nodeT)(n28,0,nodeT)(n28,250,nodeT)(n28,252,nodeT)(n28,253,nodeT)(n28,259,nodeT)(n28,261,nodeT)(n28,262,nodeT)(n28,265,nodeT)(n28,269,nodeT)(n28,273,nodeT)(n28,274,nodeT)(n28,275,nodeT)(n28,276,nodeT)(n29,0,n4)(n29,250,n6)(n29,252,n9)(n29,253,n9)(n29,259,n12)(n29,261,n14)(n29,262,n16)(n29,265,n18)(n29,269,n20)(n29,273,n22)(n29,274,n24)(n29,275,n27)(n29,276,n28)(n29,278,n28)(n30,0,n4)(n30,250,n6)(n30,252,n9)(n30,253,n9)(n30,259,n12)(n30,261,n14)(n30,262,n16)(n30,265,n18)(n30,269,n20)(n30,273,n22)(n30,274,n24)(n30,275,n27)(n30,276,n28)(n30,278,n28)(n30,279,n31)(n31,0,nodeT)(n31,250,nodeT)(n31,252,nodeT)(n31,253,nodeT)(n31,259,nodeT)(n31,261,nodeT)(n31,262,nodeT)(n31,265,nodeT)(n31,269,nodeT)(n31,273,nodeT)(n31,274,nodeT)(n31,275,nodeT)(n31,276,nodeT)(n31,278,nodeT)(n32,0,n4)(n32,250,n6)(n32,252,n9)(n32,253,n9)(n32,259,n12)(n32,261,n14)(n32,262,n16)(n32,265,n18)(n32,269,n20)(n32,273,n22)(n32,274,n24)(n32,275,n27)(n32,276,n28)(n32,278,n28)(n32,279,n31)(n32,281,n33)(n32,284,n34)(n33,0,nodeT)(n33,250,nodeT)(n33,252,nodeT)(n33,253,nodeT)(n33,259,nodeT)(n33,261,nodeT)(n33,262,nodeT)(n33,265,nodeT)(n33,269,nodeT)(n33,273,nodeT)(n33,274,nodeT)(n33,275,nodeT)(n33,276,nodeT)(n33,278,nodeT)(n33,279,nodeT)(n34,0,nodeT)(n34,250,nodeT)(n34,252,nodeT)(n34,253,nodeT)(n34,259,nodeT)(n34,261,nodeT)(n34,262,nodeT)(n34,265,nodeT)(n34,269,nodeT)(n34,273,nodeT)(n34,274,nodeT)(n34,275,nodeT)(n34,276,nodeT)(n34,278,nodeT)(n34,279,nodeT)(n34,281,nodeT)(n35,0,n4)(n35,250,n6)(n35,252,n9)(n35,253,n9)(n35,259,n12)(n35,261,n14)(n35,262,n16)(n35,265,n18)(n35,269,n20)(n35,273,n22)(n35,274,n24)(n35,275,n27)(n35,276,n28)(n35,278,n28)(n35,279,n31)(n35,281,n33)(n35,284,n36)(n36,0,nodeT)(n36,250,nodeT)(n36,252,nodeT)(n36,253,nodeT)(n36,259,nodeT)(n36,261,nodeT)(n36,262,nodeT)(n36,265,nodeT)(n36,269,nodeT)(n36,273,nodeT)(n36,274,nodeT)(n36,275,nodeT)(n36,276,nodeT)(n36,278,nodeT)(n36,279,nodeT)(n36,281,nodeT)(n36,284,nodeT)(n37,0,n4)(n37,250,n6)(n37,252,n9)(n37,253,n9)(n37,259,n12)(n37,261,n14)(n37,262,n16)(n37,265,n18)(n37,269,n20)(n37,273,n22)(n37,274,n24)(n37,275,n27)(n37,276,n28)(n37,278,n28)(n37,279,n31)(n37,281,n33)(n37,284,n36)(n37,287,n36)(n38,0,n4)(n38,250,n6)(n38,252,n9)(n38,253,n9)(n38,259,n12)(n38,261,n14)(n38,262,n16)(n38,265,n18)(n38,269,n20)(n38,273,n22)(n38,274,n24)(n38,275,n27)(n38,276,n28)(n38,278,n28)(n38,279,n31)(n38,281,n33)(n38,284,n36)(n38,287,n36)(n38,292,n39)(n39,0,nodeT)(n39,250,nodeT)(n39,252,nodeT)(n39,253,nodeT)(n39,259,nodeT)(n39,261,nodeT)(n39,262,nodeT)(n39,265,nodeT)(n39,269,nodeT)(n39,273,nodeT)(n39,274,nodeT)(n39,275,nodeT)(n39,276,nodeT)(n39,278,nodeT)(n39,279,nodeT)(n39,281,nodeT)(n39,284,nodeT)(n39,287,nodeT)(n40,0,n4)(n40,250,n6)(n40,252,n9)(n40,253,n9)(n40,259,n12)(n40,261,n14)(n40,262,n16)(n40,265,n18)(n40,269,n20)(n40,273,n22)(n40,274,n24)(n40,275,n27)(n40,276,n28)(n40,278,n28)(n40,279,n31)(n40,281,n33)(n40,284,n36)(n40,287,n36)(n40,292,n39)(n40,297,n41)(n41,0,nodeT)(n41,250,nodeT)(n41,252,nodeT)(n41,253,nodeT)(n41,259,nodeT)(n41,261,nodeT)(n41,262,nodeT)(n41,265,nodeT)(n41,269,nodeT)(n41,273,nodeT)(n41,274,nodeT)(n41,275,nodeT)(n41,276,nodeT)(n41,278,nodeT)(n41,279,nodeT)(n41,281,nodeT)(n41,284,nodeT)(n41,287,nodeT)(n41,292,nodeT)(n42,0,n4)(n42,250,n6)(n42,252,n9)(n42,253,n9)(n42,259,n12)(n42,261,n14)(n42,262,n16)(n42,265,n18)(n42,269,n20)(n42,273,n22)(n42,274,n24)(n42,275,n27)(n42,276,n28)(n42,278,n28)(n42,279,n31)(n42,281,n33)(n42,284,n36)(n42,287,n36)(n42,292,n39)(n42,297,n41)(n42,300,n43)(n43,0,nodeT)(n43,250,nodeT)(n43,252,nodeT)(n43,253,nodeT)(n43,259,nodeT)(n43,261,nodeT)(n43,262,nodeT)(n43,265,nodeT)(n43,269,nodeT)(n43,273,nodeT)(n43,274,nodeT)(n43,275,nodeT)(n43,276,nodeT)(n43,278,nodeT)(n43,279,nodeT)(n43,281,nodeT)(n43,284,nodeT)(n43,287,nodeT)(n43,292,nodeT)(n43,297,nodeT)(n44,0,n4)(n44,250,n6)(n44,252,n9)(n44,253,n9)(n44,259,n12)(n44,261,n14)(n44,262,n16)(n44,265,n18)(n44,269,n20)(n44,273,n22)(n44,274,n24)(n44,275,n27)(n44,276,n28)(n44,278,n28)(n44,279,n31)(n44,281,n33)(n44,284,n36)(n44,287,n36)(n44,292,n39)(n44,297,n41)(n44,300,n43)(n44,304,n45)(n45,0,nodeT)(n45,250,nodeT)(n45,252,nodeT)(n45,253,nodeT)(n45,259,nodeT)(n45,261,nodeT)(n45,262,nodeT)(n45,265,nodeT)(n45,269,nodeT)(n45,273,nodeT)(n45,274,nodeT)(n45,275,nodeT)(n45,276,nodeT)(n45,278,nodeT)(n45,279,nodeT)(n45,281,nodeT)(n45,284,nodeT)(n45,287,nodeT)(n45,292,nodeT)(n45,297,nodeT)(n45,300,nodeT)(n46,0,n4)(n46,250,n6)(n46,252,n9)(n46,253,n9)(n46,259,n12)(n46,261,n14)(n46,262,n16)(n46,265,n18)(n46,269,n20)(n46,273,n22)(n46,274,n24)(n46,275,n27)(n46,276,n28)(n46,278,n28)(n46,279,n31)(n46,281,n33)(n46,284,n36)(n46,287,n36)(n46,292,n39)(n46,297,n41)(n46,300,n43)(n46,304,n45)(n46,310,n47)(n47,0,nodeT)(n47,250,nodeT)(n47,252,nodeT)(n47,253,nodeT)(n47,259,nodeT)(n47,261,nodeT)(n47,262,nodeT)(n47,265,nodeT)(n47,269,nodeT)(n47,273,nodeT)(n47,274,nodeT)(n47,275,nodeT)(n47,276,nodeT)(n47,278,nodeT)(n47,279,nodeT)(n47,281,nodeT)(n47,284,nodeT)(n47,287,nodeT)(n47,292,nodeT)(n47,297,nodeT)(n47,300,nodeT)(n47,304,nodeT)(n48,0,n4)(n48,250,n6)(n48,252,n9)(n48,253,n9)(n48,259,n12)(n48,261,n14)(n48,262,n16)(n48,265,n18)(n48,269,n20)(n48,273,n22)(n48,274,n24)(n48,275,n27)(n48,276,n28)(n48,278,n28)(n48,279,n31)(n48,281,n33)(n48,284,n36)(n48,287,n36)(n48,292,n39)(n48,297,n41)(n48,300,n43)(n48,304,n45)(n48,310,n47)(n48,317,n49)(n49,0,nodeT)(n49,250,nodeT)(n49,252,nodeT)(n49,253,nodeT)(n49,259,nodeT)(n49,261,nodeT)(n49,262,nodeT)(n49,265,nodeT)(n49,269,nodeT)(n49,273,nodeT)(n49,274,nodeT)(n49,275,nodeT)(n49,276,nodeT)(n49,278,nodeT)(n49,279,nodeT)(n49,281,nodeT)(n49,284,nodeT)(n49,287,nodeT)(n49,292,nodeT)(n49,297,nodeT)(n49,300,nodeT)(n49,304,nodeT)(n49,310,nodeT)(n50,0,n4)(n50,250,n6)(n50,252,n9)(n50,253,n9)(n50,259,n12)(n50,261,n14)(n50,262,n16)(n50,265,n18)(n50,269,n20)(n50,273,n22)(n50,274,n24)(n50,275,n27)(n50,276,n28)(n50,278,n28)(n50,279,n31)(n50,281,n33)(n50,284,n36)(n50,287,n36)(n50,292,n39)(n50,297,n41)(n50,300,n43)(n50,304,n45)(n50,310,n47)(n50,317,n49)(n50,321,n51)(n50,322,n52)(n51,0,nodeT)(n51,250,nodeT)(n51,252,nodeT)(n51,253,nodeT)(n51,259,nodeT)(n51,261,nodeT)(n51,262,nodeT)(n51,265,nodeT)(n51,269,nodeT)(n51,273,nodeT)(n51,274,nodeT)(n51,275,nodeT)(n51,276,nodeT)(n51,278,nodeT)(n51,279,nodeT)(n51,281,nodeT)(n51,284,nodeT)(n51,287,nodeT)(n51,292,nodeT)(n51,297,nodeT)(n51,300,nodeT)(n51,304,nodeT)(n51,310,nodeT)(n51,317,nodeT)(n52,0,nodeT)(n52,250,nodeT)(n52,252,nodeT)(n52,253,nodeT)(n52,259,nodeT)(n52,261,nodeT)(n52,262,nodeT)(n52,265,nodeT)(n52,269,nodeT)(n52,273,nodeT)(n52,274,nodeT)(n52,275,nodeT)(n52,276,nodeT)(n52,278,nodeT)(n52,279,nodeT)(n52,281,nodeT)(n52,284,nodeT)(n52,287,nodeT)(n52,292,nodeT)(n52,297,nodeT)(n52,300,nodeT)(n52,304,nodeT)(n52,310,nodeT)(n52,317,nodeT)(n52,321,nodeT)(n53,0,n4)(n53,250,n6)(n53,252,n9)(n53,253,n9)(n53,259,n12)(n53,261,n14)(n53,262,n16)(n53,265,n18)(n53,269,n20)(n53,273,n22)(n53,274,n24)(n53,275,n27)(n53,276,n28)(n53,278,n28)(n53,279,n31)(n53,281,n33)(n53,284,n36)(n53,287,n36)(n53,292,n39)(n53,297,n41)(n53,300,n43)(n53,304,n45)(n53,310,n47)(n53,317,n49)(n53,321,n51)(n53,322,n54)(n54,0,nodeT)(n54,250,nodeT)(n54,252,nodeT)(n54,253,nodeT)(n54,259,nodeT)(n54,261,nodeT)(n54,262,nodeT)(n54,265,nodeT)(n54,269,nodeT)(n54,273,nodeT)(n54,274,nodeT)(n54,275,nodeT)(n54,276,nodeT)(n54,278,nodeT)(n54,279,nodeT)(n54,281,nodeT)(n54,284,nodeT)(n54,287,nodeT)(n54,292,nodeT)(n54,297,nodeT)(n54,300,nodeT)(n54,304,nodeT)(n54,310,nodeT)(n54,317,nodeT)(n54,321,nodeT)(n54,322,nodeT)(n55,0,n4)(n55,250,n6)(n55,252,n9)(n55,253,n9)(n55,259,n12)(n55,261,n14)(n55,262,n16)(n55,265,n18)(n55,269,n20)(n55,273,n22)(n55,274,n24)(n55,275,n27)(n55,276,n28)(n55,278,n28)(n55,279,n31)(n55,281,n33)(n55,284,n36)(n55,287,n36)(n55,292,n39)(n55,297,n41)(n55,300,n43)(n55,304,n45)(n55,310,n47)(n55,317,n49)(n55,321,n51)(n55,322,n54)(n55,328,n54)(n56,0,n4)(n56,250,n6)(n56,252,n9)(n56,253,n9)(n56,259,n12)(n56,261,n14)(n56,262,n16)(n56,265,n18)(n56,269,n20)(n56,273,n22)(n56,274,n24)(n56,275,n27)(n56,276,n28)(n56,278,n28)(n56,279,n31)(n56,281,n33)(n56,284,n36)(n56,287,n36)(n56,292,n39)(n56,297,n41)(n56,300,n43)(n56,304,n45)(n56,310,n47)(n56,317,n49)(n56,321,n51)(n56,322,n54)(n56,328,n54)(n56,337,n54)(n57,0,n4)(n57,250,n6)(n57,252,n9)(n57,253,n9)(n57,259,n12)(n57,261,n14)(n57,262,n16)(n57,265,n18)(n57,269,n20)(n57,273,n22)(n57,274,n24)(n57,275,n27)(n57,276,n28)(n57,278,n28)(n57,279,n31)(n57,281,n33)(n57,284,n36)(n57,287,n36)(n57,292,n39)(n57,297,n41)(n57,300,n43)(n57,304,n45)(n57,310,n47)(n57,317,n49)(n57,321,n51)(n57,322,n54)(n57,328,n54)(n57,337,n51)(n57,339,n51)(n58,0,n4)(n58,250,n6)(n58,252,n9)(n58,253,n9)(n58,259,n12)(n58,261,n14)(n58,262,n16)(n58,265,n18)(n58,269,n20)(n58,273,n22)(n58,274,n24)(n58,275,n27)(n58,276,n28)(n58,278,n28)(n58,279,n31)(n58,281,n33)(n58,284,n36)(n58,287,n36)(n58,292,n39)(n58,297,n41)(n58,300,n43)(n58,304,n45)(n58,310,n47)(n58,317,n49)(n58,321,n51)(n58,322,n54)(n58,328,n51)(n58,337,n47)(n58,339,n47)(n58,344,n45)(n59,0,n4)(n59,250,n6)(n59,252,n9)(n59,253,n9)(n59,259,n12)(n59,261,n14)(n59,262,n16)(n59,265,n18)(n59,269,n20)(n59,273,n22)(n59,274,n24)(n59,275,n27)(n59,276,n28)(n59,278,n28)(n59,279,n31)(n59,281,n33)(n59,284,n36)(n59,287,n36)(n59,292,n39)(n59,297,n41)(n59,300,n43)(n59,304,n45)(n59,310,n47)(n59,317,n49)(n59,321,n51)(n59,322,n52)(n59,328,n49)(n59,337,n47)(n59,339,n47)(n59,344,n43)(n59,355,n39)(n60,0,n4)(n60,250,n6)(n60,252,n9)(n60,253,n9)(n60,259,n12)(n60,261,n14)(n60,262,n16)(n60,265,n18)(n60,269,n20)(n60,273,n22)(n60,274,n24)(n60,275,n27)(n60,276,n28)(n60,278,n28)(n60,279,n31)(n60,281,n33)(n60,284,n36)(n60,287,n36)(n60,292,n39)(n60,297,n41)(n60,300,n43)(n60,304,n45)(n60,310,n47)(n60,317,n49)(n60,321,n49)(n60,322,n49)(n60,328,n47)(n60,337,n43)(n60,339,n41)(n60,344,n39)(n60,355,n33)(n60,357,n31)(n61,0,n4)(n61,250,n6)(n61,252,n9)(n61,253,n9)(n61,259,n12)(n61,261,n14)(n61,262,n16)(n61,265,n18)(n61,269,n20)(n61,273,n22)(n61,274,n24)(n61,275,n27)(n61,276,n28)(n61,278,n28)(n61,279,n31)(n61,281,n33)(n61,284,n36)(n61,287,n36)(n61,292,n39)(n61,297,n41)(n61,300,n43)(n61,304,n45)(n61,310,n47)(n61,317,n49)(n61,321,n49)(n61,322,n49)(n61,328,n47)(n61,337,n41)(n61,339,n41)(n61,344,n39)(n61,355,n28)(n61,357,n27)(n61,365,n20)(n62,0,n4)(n62,250,n6)(n62,252,n9)(n62,253,n9)(n62,259,n12)(n62,261,n14)(n62,262,n16)(n62,265,n18)(n62,269,n20)(n62,273,n22)(n62,274,n24)(n62,275,n27)(n62,276,n28)(n62,278,n28)(n62,279,n31)(n62,281,n33)(n62,284,n36)(n62,287,n36)(n62,292,n39)(n62,297,n41)(n62,300,n43)(n62,304,n45)(n62,310,n47)(n62,317,n49)(n62,321,n49)(n62,322,n47)(n62,328,n45)(n62,337,n41)(n62,339,n41)(n62,344,n39)(n62,355,n28)(n62,357,n25)(n62,365,n20)(n62,368,n18)(n63,0,n4)(n63,250,n6)(n63,252,n9)(n63,253,n9)(n63,259,n12)(n63,261,n14)(n63,262,n16)(n63,265,n18)(n63,269,n20)(n63,273,n22)(n63,274,n24)(n63,275,n27)(n63,276,n28)(n63,278,n28)(n63,279,n31)(n63,281,n33)(n63,284,n36)(n63,287,n36)(n63,292,n39)(n63,297,n41)(n63,300,n43)(n63,304,n45)(n63,310,n47)(n63,317,n47)(n63,321,n47)(n63,322,n47)(n63,328,n43)(n63,337,n39)(n63,339,n39)(n63,344,n34)(n63,355,n22)(n63,357,n22)(n63,365,n16)(n63,368,n12)(n63,369,n12)(n63,374,n9)(n64,0,n4)(n64,250,n6)(n64,252,n9)(n64,253,n9)(n64,259,n12)(n64,261,n14)(n64,262,n16)(n64,265,n18)(n64,269,n20)(n64,273,n22)(n64,274,n24)(n64,275,n27)(n64,276,n28)(n64,278,n28)(n64,279,n31)(n64,281,n33)(n64,284,n36)(n64,287,n36)(n64,292,n39)(n64,297,n41)(n64,300,n43)(n64,304,n45)(n64,310,n47)(n64,317,n47)(n64,321,n47)(n64,322,n45)(n64,328,n43)(n64,337,n39)(n64,339,n36)(n64,344,n34)(n64,355,n22)(n64,357,n20)(n64,365,n14)(n64,368,n12)(n64,369,n12)(n64,374,n6)(n65,0,n4)(n65,250,n6)(n65,252,n9)(n65,253,n9)(n65,259,n12)(n65,261,n14)(n65,262,n16)(n65,265,n18)(n65,269,n20)(n65,273,n22)(n65,274,n24)(n65,275,n27)(n65,276,n28)(n65,278,n28)(n65,279,n31)(n65,281,n33)(n65,284,n36)(n65,287,n36)(n65,292,n39)(n65,297,n41)(n65,300,n43)(n65,304,n45)(n65,310,n47)(n65,317,n45)(n65,321,n43)(n65,322,n43)(n65,328,n41)(n65,337,n34)(n65,339,n34)(n65,344,n28)(n65,355,n20)(n65,357,n18)(n65,365,n12)(n65,368,n9)(n65,369,n6)(n65,374,n4)(n65,375,n4)(n66,0,n4)(n66,250,n6)(n66,252,n9)(n66,253,n9)(n66,259,n12)(n66,261,n14)(n66,262,n16)(n66,265,n18)(n66,269,n20)(n66,273,n22)(n66,274,n24)(n66,275,n27)(n66,276,n28)(n66,278,n28)(n66,279,n31)(n66,281,n33)(n66,284,n36)(n66,287,n36)(n66,292,n39)(n66,297,n41)(n66,300,n43)(n66,304,n45)(n66,310,n45)(n66,317,n41)(n66,321,n39)(n66,322,n39)(n66,328,n36)(n66,337,n27)(n66,339,n24)(n66,344,n20)(n66,355,n12)(n66,357,n12)(n66,365,n4)(n66,368,n4)(n66,369,n4)(n66,374,n4)(n66,375,n4)(n66,380,n4)(n67,0,n4)(n67,250,n6)(n67,252,n9)(n67,253,n9)(n67,259,n12)(n67,261,n14)(n67,262,n16)(n67,265,n18)(n67,269,n20)(n67,273,n22)(n67,274,n24)(n67,275,n27)(n67,276,n28)(n67,278,n28)(n67,279,n31)(n67,281,n33)(n67,284,n36)(n67,287,n36)(n67,292,n39)(n67,297,n41)(n67,300,n43)(n67,304,n45)(n67,310,n41)(n67,317,n39)(n67,321,n36)(n67,322,n36)(n67,328,n31)(n67,337,n22)(n67,339,n20)(n67,344,n18)(n67,355,n6)(n67,357,n4)(n67,365,n4)(n67,368,n4)(n67,369,n4)(n67,374,n4)(n67,375,n4)(n67,380,n4)(n67,388,n4)(n68,0,n4)(n68,250,n6)(n68,252,n9)(n68,253,n9)(n68,259,n12)(n68,261,n14)(n68,262,n16)(n68,265,n18)(n68,269,n20)(n68,273,n22)(n68,274,n24)(n68,275,n27)(n68,276,n28)(n68,278,n28)(n68,279,n31)(n68,281,n33)(n68,284,n36)(n68,287,n36)(n68,292,n39)(n68,297,n41)(n68,300,n43)(n68,304,n41)(n68,310,n39)(n68,317,n34)(n68,321,n33)(n68,322,n31)(n68,328,n22)(n68,337,n18)(n68,339,n16)(n68,344,n12)(n68,355,n4)(n68,357,n4)(n68,365,n4)(n68,368,n4)(n68,369,n4)(n68,374,n4)(n68,375,n4)(n68,380,n4)(n68,388,n4)(n68,394,n4)(n69,0,n4)(n69,250,n6)(n69,252,n9)(n69,253,n9)(n69,259,n12)(n69,261,n14)(n69,262,n16)(n69,265,n18)(n69,269,n20)(n69,273,n22)(n69,274,n24)(n69,275,n27)(n69,276,n28)(n69,278,n28)(n69,279,n31)(n69,281,n33)(n69,284,n36)(n69,287,n36)(n69,292,n39)(n69,297,n41)(n69,300,n43)(n69,304,n41)(n69,310,n39)(n69,317,n33)(n69,321,n28)(n69,322,n27)(n69,328,n22)(n69,337,n14)(n69,339,n12)(n69,344,n12)(n69,355,n4)(n69,357,n4)(n69,365,n4)(n69,368,n4)(n69,369,n4)(n69,374,n4)(n69,375,n4)(n69,380,n4)(n69,388,n4)(n69,394,n4)(n69,400,n4)(n70,0,n4)(n70,250,n6)(n70,252,n9)(n70,253,n9)(n70,259,n12)(n70,261,n14)(n70,262,n16)(n70,265,n18)(n70,269,n20)(n70,273,n22)(n70,274,n24)(n70,275,n27)(n70,276,n28)(n70,278,n28)(n70,279,n31)(n70,281,n33)(n70,284,n36)(n70,287,n36)(n70,292,n39)(n70,297,n41)(n70,300,n41)(n70,304,n39)(n70,310,n36)(n70,317,n31)(n70,321,n25)(n70,322,n24)(n70,328,n20)(n70,337,n12)(n70,339,n12)(n70,344,n6)(n70,355,n4)(n70,357,n4)(n70,365,n4)(n70,368,n4)(n70,369,n4)(n70,374,n4)(n70,375,n4)(n70,380,n4)(n70,388,n4)(n70,394,n4)(n70,400,n4)(n70,403,n4)(n71,0,n4)(n71,250,n6)(n71,252,n9)(n71,253,n9)(n71,259,n12)(n71,261,n14)(n71,262,n16)(n71,265,n18)(n71,269,n20)(n71,273,n22)(n71,274,n24)(n71,275,n27)(n71,276,n28)(n71,278,n28)(n71,279,n31)(n71,281,n33)(n71,284,n36)(n71,287,n36)(n71,292,n36)(n71,297,n33)(n71,300,n28)(n71,304,n22)(n71,310,n20)(n71,317,n14)(n71,321,n12)(n71,322,n12)(n71,328,n4)(n71,337,n4)(n71,339,n4)(n71,344,n4)(n71,355,n4)(n71,357,n4)(n71,365,n4)(n71,368,n4)(n71,369,n4)(n71,374,n4)(n71,375,n4)(n71,380,n4)(n71,388,n4)(n71,394,n4)(n71,400,n4)(n71,403,n4)(n71,405,n4)(n72,0,n4)(n72,250,n6)(n72,252,n9)(n72,253,n9)(n72,259,n12)(n72,261,n14)(n72,262,n16)(n72,265,n18)(n72,269,n20)(n72,273,n22)(n72,274,n24)(n72,275,n27)(n72,276,n28)(n72,278,n28)(n72,279,n31)(n72,281,n33)(n72,284,n36)(n72,287,n36)(n72,292,n34)(n72,297,n28)(n72,300,n24)(n72,304,n22)(n72,310,n18)(n72,317,n12)(n72,321,n9)(n72,322,n6)(n72,328,n4)(n72,337,n4)(n72,339,n4)(n72,344,n4)(n72,355,n4)(n72,357,n4)(n72,365,n4)(n72,368,n4)(n72,369,n4)(n72,374,n4)(n72,375,n4)(n72,380,n4)(n72,388,n4)(n72,394,n4)(n72,400,n4)(n72,403,n4)(n72,405,n4)(n72,424,n4)(n73,0,n4)(n73,250,n6)(n73,252,n9)(n73,253,n9)(n73,259,n12)(n73,261,n14)(n73,262,n16)(n73,265,n18)(n73,269,n20)(n73,273,n22)(n73,274,n24)(n73,275,n27)(n73,276,n27)(n73,278,n24)(n73,279,n22)(n73,281,n22)(n73,284,n20)(n73,287,n18)(n73,292,n14)(n73,297,n12)(n73,300,n6)(n73,304,n4)(n73,310,n4)(n73,317,n4)(n73,321,n4)(n73,322,n4)(n73,328,n4)(n73,337,n4)(n73,339,n4)(n73,344,n4)(n73,355,n4)(n73,357,n4)(n73,365,n4)(n73,368,n4)(n73,369,n4)(n73,374,n4)(n73,375,n4)(n73,380,n4)(n73,388,n4)(n73,394,n4)(n73,400,n4)(n73,403,n4)(n73,405,n4)(n73,424,n4)(n73,427,n4)(n74,0,n4)(n74,250,n6)(n74,252,n9)(n74,253,n9)(n74,259,n12)(n74,261,n14)(n74,262,n16)(n74,265,n18)(n74,269,n20)(n74,273,n22)(n74,274,n24)(n74,275,n27)(n74,276,n25)(n74,278,n22)(n74,279,n22)(n74,281,n22)(n74,284,n20)(n74,287,n18)(n74,292,n12)(n74,297,n12)(n74,300,n6)(n74,304,n4)(n74,310,n4)(n74,317,n4)(n74,321,n4)(n74,322,n4)(n74,328,n4)(n74,337,n4)(n74,339,n4)(n74,344,n4)(n74,355,n4)(n74,357,n4)(n74,365,n4)(n74,368,n4)(n74,369,n4)(n74,374,n4)(n74,375,n4)(n74,380,n4)(n74,388,n4)(n74,394,n4)(n74,400,n4)(n74,403,n4)(n74,405,n4)(n74,424,n4)(n74,427,n4)(n74,449,n4)(n75,0,n4)(n75,250,n6)(n75,252,n9)(n75,253,n9)(n75,259,n12)(n75,261,n14)(n75,262,n16)(n75,265,n18)(n75,269,n20)(n75,273,n22)(n75,274,n24)(n75,275,n25)(n75,276,n24)(n75,278,n22)(n75,279,n22)(n75,281,n20)(n75,284,n20)(n75,287,n18)(n75,292,n12)(n75,297,n9)(n75,300,n4)(n75,304,n4)(n75,310,n4)(n75,317,n4)(n75,321,n4)(n75,322,n4)(n75,328,n4)(n75,337,n4)(n75,339,n4)(n75,344,n4)(n75,355,n4)(n75,357,n4)(n75,365,n4)(n75,368,n4)(n75,369,n4)(n75,374,n4)(n75,375,n4)(n75,380,n4)(n75,388,n4)(n75,394,n4)(n75,400,n4)(n75,403,n4)(n75,405,n4)(n75,424,n4)(n75,427,n4)(n75,449,n4)(n75,450,n4)(n76,0,n4)(n76,250,n6)(n76,252,n9)(n76,253,n9)(n76,259,n12)(n76,261,n14)(n76,262,n16)(n76,265,n18)(n76,269,n20)(n76,273,n18)(n76,274,n18)(n76,275,n16)(n76,276,n14)(n76,278,n12)(n76,279,n12)(n76,281,n12)(n76,284,n9)(n76,287,n4)(n76,292,n4)(n76,297,n4)(n76,300,n4)(n76,304,n4)(n76,310,n4)(n76,317,n4)(n76,321,n4)(n76,322,n4)(n76,328,n4)(n76,337,n4)(n76,339,n4)(n76,344,n4)(n76,355,n4)(n76,357,n4)(n76,365,n4)(n76,368,n4)(n76,369,n4)(n76,374,n4)(n76,375,n4)(n76,380,n4)(n76,388,n4)(n76,394,n4)(n76,400,n4)(n76,403,n4)(n76,405,n4)(n76,424,n4)(n76,427,n4)(n76,449,n4)(n76,450,n4)(n76,451,n4)(n77,0,n4)(n77,250,n6)(n77,252,n9)(n77,253,n9)(n77,259,n12)(n77,261,n14)(n77,262,n16)(n77,265,n18)(n77,269,n14)(n77,273,n12)(n77,274,n12)(n77,275,n12)(n77,276,n12)(n77,278,n6)(n77,279,n6)(n77,281,n4)(n77,284,n4)(n77,287,n4)(n77,292,n4)(n77,297,n4)(n77,300,n4)(n77,304,n4)(n77,310,n4)(n77,317,n4)(n77,321,n4)(n77,322,n4)(n77,328,n4)(n77,337,n4)(n77,339,n4)(n77,344,n4)(n77,355,n4)(n77,357,n4)(n77,365,n4)(n77,368,n4)(n77,369,n4)(n77,374,n4)(n77,375,n4)(n77,380,n4)(n77,388,n4)(n77,394,n4)(n77,400,n4)(n77,403,n4)(n77,405,n4)(n77,424,n4)(n77,427,n4)(n77,449,n4)(n77,450,n4)(n77,451,n4)(n77,464,n4)(n78,0,n4)(n78,250,n6)(n78,252,n9)(n78,253,n9)(n78,259,n12)(n78,261,n12)(n78,262,n12)(n78,265,n6)(n78,269,n4)(n78,273,n4)(n78,274,n4)(n78,275,n4)(n78,276,n4)(n78,278,n4)(n78,279,n4)(n78,281,n4)(n78,284,n4)(n78,287,n4)(n78,292,n4)(n78,297,n4)(n78,300,n4)(n78,304,n4)(n78,310,n4)(n78,317,n4)(n78,321,n4)(n78,322,n4)(n78,328,n4)(n78,337,n4)(n78,339,n4)(n78,344,n4)(n78,355,n4)(n78,357,n4)(n78,365,n4)(n78,368,n4)(n78,369,n4)(n78,374,n4)(n78,375,n4)(n78,380,n4)(n78,388,n4)(n78,394,n4)(n78,400,n4)(n78,403,n4)(n78,405,n4)(n78,424,n4)(n78,427,n4)(n78,449,n4)(n78,450,n4)(n78,451,n4)(n78,464,n4)(n78,471,n4)(n79,0,n4)(n79,250,n6)(n79,252,n6)(n79,253,n4)(n79,259,n4)(n79,261,n4)(n79,262,n4)(n79,265,n4)(n79,269,n4)(n79,273,n4)(n79,274,n4)(n79,275,n4)(n79,276,n4)(n79,278,n4)(n79,279,n4)(n79,281,n4)(n79,284,n4)(n79,287,n4)(n79,292,n4)(n79,297,n4)(n79,300,n4)(n79,304,n4)(n79,310,n4)(n79,317,n4)(n79,321,n4)(n79,322,n4)(n79,328,n4)(n79,337,n4)(n79,339,n4)(n79,344,n4)(n79,355,n4)(n79,357,n4)(n79,365,n4)(n79,368,n4)(n79,369,n4)(n79,374,n4)(n79,375,n4)(n79,380,n4)(n79,388,n4)(n79,394,n4)(n79,400,n4)(n79,403,n4)(n79,405,n4)(n79,424,n4)(n79,427,n4)(n79,449,n4)(n79,450,n4)(n79,451,n4)(n79,464,n4)(n79,471,n4)(n79,485,n4) </transitions>
      </mdd>
      <args> b[0][] </args>
      <args> b[1][] </args>
      <args> b[2][] </args>
      <args> b[3][] </args>
      <args> b[4][] </args>
      <args> b[5][] </args>
      <args> b[6][] </args>
      <args> b[7][] </args>
      <args> b[8][] </args>
      <args> b[9][] </args>
      <args> b[10][] </args>
      <args> b[11][] </args>
      <args> b[12][] </args>
      <args> b[13][] </args>
      <args> b[14][] </args>
      <args> b[15][] </args>
      <args> b[16][] </args>
      <args> b[17][] </args>
      <args> b[18][] </args>
      <args> b[19][] </args>
      <args> b[20][] </args>
      <args> b[21][] </args>
      <args> b[22][] </args>
      <args> b[23][] </args>
    </group>
    <cardinality>
      <list> b[][] </list>
      <values> 0 250 252 253 259 261 262 265 269 273 274 275 276 278 279 281 284 287 292 297 300 304 310 317 321 322 328 337 339 344 355 357 365 368 369 374 375 380 388 394 400 403 405 424 427 449 450 451 464 471 485 498 </values>
      <occurs> 12 3 2 1 1 1 1 1 1 1 1 2 3 1 1 1 2 1 1 1 1 1 1 1 1 2 1 1 1 1 1 1 1 1 1 2 1 1 1 1 1 1 1 1 1 1 1 1 1 1 1 1 </occurs>
    </cardinality>
    <lex class="symmetryBreaking">
      <list> b[0][] </list>
      <list> b[1][] </list>
      <list> b[2][] </list>
      <list> b[3][] </list>
      <list> b[4][] </list>
      <list> b[5][] </list>
      <list> b[6][] </list>
      <list> b[7][] </list>
      <list> b[8][] </list>
      <list> b[9][] </list>
      <list> b[10][] </list>
      <list> b[11][] </list>
      <list> b[12][] </list>
      <list> b[13][] </list>
      <list> b[14][] </list>
      <list> b[15][] </list>
      <list> b[16][] </list>
      <list> b[17][] </list>
      <list> b[18][] </list>
      <list> b[19][] </list>
      <list> b[20][] </list>
      <list> b[21][] </list>
      <list> b[22][] </list>
      <list> b[23][] </list>
      <operator> ge </operator>
    </lex>
    <count>
      <list> b[][0] </list>
      <values> 0 </values>
      <condition> (eq,x) </condition>
    </count>
  </constraints>
  <objectives>
    <maximize> x </maximize>
  </objectives>
</instance>
